1111100 AB
317 347 377 407 437 472 519 566 612 655 698 741 784 813 843 872 916 959 1003 1043 1084 1124 1164 1203 1242 1281 1320 1358 1395 1433 282
1111100 BA
330 365 395 426 461 493 528 575 622 668 711 754 797 840 869 899 929 974 1017 1061 1101 1142 1180 1220 1259 1293 1329 1368 1406 3 41
0000011 AB
338 396 460 524 589 654 719 785 851 915 979 1043 1107 1172 1237 1302 1361 1421 281
0000011 BA
330 387 449 516 580 645 710 775 841 907 971 1035 1099 1163 1228 1288 1351 1410 30
